num_offers = 40;
num_halls = 10;
start=[21,41,10,71,22,79,13,17,3,3,4,30,15,58,50,2,56,42,22,20,24,40,30,49,27,21,12,57,4,14,24,11,63,35,5,11,15,28,42,69];
end=[69,72,46,87,99,80,47,94,45,32,58,64,78,76,82,83,76,58,37,80,64,98,81,73,66,52,75,99,11,55,67,60,65,95,9,12,74,34,99,88];
price=[3113,1183,1192,262,3641,196,1287,3332,3983,2973,2192,3115,2110,815,2126,2833,270,1670,1366,3951,2313,5396,1871,925,3335,1415,667,969,584,1416,1328,2717,246,5698,67,78,958,447,2016,1837];
requirement=[654,735,753,924,879,244,440,338,523,610,962,253,767,727,960,490,949,864,632,710,612,509,896,932,302,620,304,446,358,333,894,543,332,353,211,721,415,881,374,611];
capacity=[351,691,575,467,987,724,433,259,327,815];
